NAME: ACTUAL_TOURS/amz0569
TYPE: TOUR
COMMENT: RouteID_3bfaa700-07f1-4728-92f8-d354f1b2a049
DIMENSION: 73
TOUR_SECTION
55
72
11
40
71
26
36
33
41
58
19
46
5
56
25
62
73
14
38
17
2
16
49
8
69
53
18
60
65
31
6
3
57
51
4
64
52
20
27
59
29
1
34
66
50
37
30
42
13
54
32
10
9
48
61
23
21
15
70
22
39
28
24
7
47
35
43
63
68
44
45
67
12
-1
EOF
